p cnf 1436
-25 -445
-26 -448
-27 -451
-28 -454
-29 -457
-30 -460
-31 -463
-32 -466
-33 -469
-34 -472
-35 -475
-36 -478
-37 -481
-38 -484
-39 -487
-40 -490
-41 -493
-42 -496
-43 -499
-44 -502
-45 -505
-46 -508
-47 -511
-48 -514
-49 515
-50 516
-51 517
-52 518
-53 519
-54 520
-55 521
-56 -26
-56 -27
26 27 56
-57 -28
-57 -29
28 29 57
-58 -30
-58 -31
30 31 58
-59 -32
-59 -33
32 33 59
-60 -34
-60 -35
34 35 60
-61 -36
-61 -37
36 37 61
-62 -38
-62 -39
38 39 62
-63 -40
-63 -41
40 41 63
-64 -42
-64 -43
42 43 64
-65 -44
-65 -45
44 45 65
-66 -46
-66 -47
46 47 66
-67 -48
-67 -49
48 49 67
-68 -50
-68 -51
50 51 68
-69 -52
-69 -53
52 53 69
-70 -54
-70 -55
54 55 70
-71 56
-71 57
-56 -57 71
-72 58
-72 59
-58 -59 72
-73 60
-73 61
-60 -61 73
-74 62
-74 63
-62 -63 74
-75 64
-75 65
-64 -65 75
-76 66
-76 67
-66 -67 76
-77 68
-77 69
-68 -69 77
-78 71
-78 72
-71 -72 78
-79 73
-79 74
-73 -74 79
-80 75
-80 76
-75 -76 80
-81 70
-81 77
-70 -77 81
-82 78
-82 79
-78 -79 82
-83 80
-83 81
-80 -81 83
-84 82
-84 83
-82 -83 84
-85 -25
-85 26
25 -26 85
-86 25
-86 -26
-25 26 86
-87 -85
-87 -86
85 86 87
-88 25
-88 26
-25 -26 88
-89 -25
-89 -87
25 87 89
-90 25
-90 87
-25 -87 90
-91 -89
-91 -90
89 90 91
-92 25
-92 -87
-25 87 92
-93 -88
-93 -92
88 92 93
-94 -26
-94 27
26 -27 94
-95 26
-95 -27
-26 27 95
-96 -94
-96 -95
94 95 96
-97 26
-97 27
-26 -27 97
-98 93
-98 -96
-93 96 98
-99 -93
-99 96
93 -96 99
-100 -98
-100 -99
98 99 100
-101 -93
-101 -96
93 96 101
-102 -97
-102 -101
97 101 102
-103 -27
-103 28
27 -28 103
-104 27
-104 -28
-27 28 104
-105 -103
-105 -104
103 104 105
-106 27
-106 28
-27 -28 106
-107 102
-107 -105
-102 105 107
-108 -102
-108 105
102 -105 108
-109 -107
-109 -108
107 108 109
-110 -102
-110 -105
102 105 110
-111 -106
-111 -110
106 110 111
-112 -28
-112 29
28 -29 112
-113 28
-113 -29
-28 29 113
-114 -112
-114 -113
112 113 114
-115 28
-115 29
-28 -29 115
-116 111
-116 -114
-111 114 116
-117 -111
-117 114
111 -114 117
-118 -116
-118 -117
116 117 118
-119 -111
-119 -114
111 114 119
-120 -115
-120 -119
115 119 120
-121 -29
-121 30
29 -30 121
-122 29
-122 -30
-29 30 122
-123 -121
-123 -122
121 122 123
-124 29
-124 30
-29 -30 124
-125 120
-125 -123
-120 123 125
-126 -120
-126 123
120 -123 126
-127 -125
-127 -126
125 126 127
-128 -120
-128 -123
120 123 128
-129 -124
-129 -128
124 128 129
-130 -30
-130 31
30 -31 130
-131 30
-131 -31
-30 31 131
-132 -130
-132 -131
130 131 132
-133 30
-133 31
-30 -31 133
-134 129
-134 -132
-129 132 134
-135 -129
-135 132
129 -132 135
-136 -134
-136 -135
134 135 136
-137 -129
-137 -132
129 132 137
-138 -133
-138 -137
133 137 138
-139 -31
-139 32
31 -32 139
-140 31
-140 -32
-31 32 140
-141 -139
-141 -140
139 140 141
-142 31
-142 32
-31 -32 142
-143 138
-143 -141
-138 141 143
-144 -138
-144 141
138 -141 144
-145 -143
-145 -144
143 144 145
-146 -138
-146 -141
138 141 146
-147 -142
-147 -146
142 146 147
-148 -32
-148 33
32 -33 148
-149 32
-149 -33
-32 33 149
-150 -148
-150 -149
148 149 150
-151 32
-151 33
-32 -33 151
-152 147
-152 -150
-147 150 152
-153 -147
-153 150
147 -150 153
-154 -152
-154 -153
152 153 154
-155 -147
-155 -150
147 150 155
-156 -151
-156 -155
151 155 156
-157 -33
-157 34
33 -34 157
-158 33
-158 -34
-33 34 158
-159 -157
-159 -158
157 158 159
-160 33
-160 34
-33 -34 160
-161 156
-161 -159
-156 159 161
-162 -156
-162 159
156 -159 162
-163 -161
-163 -162
161 162 163
-164 -156
-164 -159
156 159 164
-165 -160
-165 -164
160 164 165
-166 -34
-166 35
34 -35 166
-167 34
-167 -35
-34 35 167
-168 -166
-168 -167
166 167 168
-169 34
-169 35
-34 -35 169
-170 165
-170 -168
-165 168 170
-171 -165
-171 168
165 -168 171
-172 -170
-172 -171
170 171 172
-173 -165
-173 -168
165 168 173
-174 -169
-174 -173
169 173 174
-175 -35
-175 36
35 -36 175
-176 35
-176 -36
-35 36 176
-177 -175
-177 -176
175 176 177
-178 35
-178 36
-35 -36 178
-179 174
-179 -177
-174 177 179
-180 -174
-180 177
174 -177 180
-181 -179
-181 -180
179 180 181
-182 -174
-182 -177
174 177 182
-183 -178
-183 -182
178 182 183
-184 -36
-184 37
36 -37 184
-185 36
-185 -37
-36 37 185
-186 -184
-186 -185
184 185 186
-187 36
-187 37
-36 -37 187
-188 183
-188 -186
-183 186 188
-189 -183
-189 186
183 -186 189
-190 -188
-190 -189
188 189 190
-191 -183
-191 -186
183 186 191
-192 -187
-192 -191
187 191 192
-193 -37
-193 38
37 -38 193
-194 37
-194 -38
-37 38 194
-195 -193
-195 -194
193 194 195
-196 37
-196 38
-37 -38 196
-197 192
-197 -195
-192 195 197
-198 -192
-198 195
192 -195 198
-199 -197
-199 -198
197 198 199
-200 -192
-200 -195
192 195 200
-201 -196
-201 -200
196 200 201
-202 -38
-202 39
38 -39 202
-203 38
-203 -39
-38 39 203
-204 -202
-204 -203
202 203 204
-205 38
-205 39
-38 -39 205
-206 201
-206 -204
-201 204 206
-207 -201
-207 204
201 -204 207
-208 -206
-208 -207
206 207 208
-209 -201
-209 -204
201 204 209
-210 -205
-210 -209
205 209 210
-211 -39
-211 40
39 -40 211
-212 39
-212 -40
-39 40 212
-213 -211
-213 -212
211 212 213
-214 39
-214 40
-39 -40 214
-215 210
-215 -213
-210 213 215
-216 -210
-216 213
210 -213 216
-217 -215
-217 -216
215 216 217
-218 -210
-218 -213
210 213 218
-219 -214
-219 -218
214 218 219
-220 -40
-220 41
40 -41 220
-221 40
-221 -41
-40 41 221
-222 -220
-222 -221
220 221 222
-223 40
-223 41
-40 -41 223
-224 219
-224 -222
-219 222 224
-225 -219
-225 222
219 -222 225
-226 -224
-226 -225
224 225 226
-227 -219
-227 -222
219 222 227
-228 -223
-228 -227
223 227 228
-229 -41
-229 42
41 -42 229
-230 41
-230 -42
-41 42 230
-231 -229
-231 -230
229 230 231
-232 41
-232 42
-41 -42 232
-233 228
-233 -231
-228 231 233
-234 -228
-234 231
228 -231 234
-235 -233
-235 -234
233 234 235
-236 -228
-236 -231
228 231 236
-237 -232
-237 -236
232 236 237
-238 -42
-238 43
42 -43 238
-239 42
-239 -43
-42 43 239
-240 -238
-240 -239
238 239 240
-241 42
-241 43
-42 -43 241
-242 237
-242 -240
-237 240 242
-243 -237
-243 240
237 -240 243
-244 -242
-244 -243
242 243 244
-245 -237
-245 -240
237 240 245
-246 -241
-246 -245
241 245 246
-247 -43
-247 44
43 -44 247
-248 43
-248 -44
-43 44 248
-249 -247
-249 -248
247 248 249
-250 43
-250 44
-43 -44 250
-251 246
-251 -249
-246 249 251
-252 -246
-252 249
246 -249 252
-253 -251
-253 -252
251 252 253
-254 -246
-254 -249
246 249 254
-255 -250
-255 -254
250 254 255
-256 -44
-256 45
44 -45 256
-257 44
-257 -45
-44 45 257
-258 -256
-258 -257
256 257 258
-259 44
-259 45
-44 -45 259
-260 255
-260 -258
-255 258 260
-261 -255
-261 258
255 -258 261
-262 -260
-262 -261
260 261 262
-263 -255
-263 -258
255 258 263
-264 -259
-264 -263
259 263 264
-265 -45
-265 46
45 -46 265
-266 45
-266 -46
-45 46 266
-267 -265
-267 -266
265 266 267
-268 45
-268 46
-45 -46 268
-269 264
-269 -267
-264 267 269
-270 -264
-270 267
264 -267 270
-271 -269
-271 -270
269 270 271
-272 -264
-272 -267
264 267 272
-273 -268
-273 -272
268 272 273
-274 -46
-274 47
46 -47 274
-275 46
-275 -47
-46 47 275
-276 -274
-276 -275
274 275 276
-277 46
-277 47
-46 -47 277
-278 273
-278 -276
-273 276 278
-279 -273
-279 276
273 -276 279
-280 -278
-280 -279
278 279 280
-281 -273
-281 -276
273 276 281
-282 -277
-282 -281
277 281 282
-283 -47
-283 48
47 -48 283
-284 47
-284 -48
-47 48 284
-285 -283
-285 -284
283 284 285
-286 47
-286 48
-47 -48 286
-287 282
-287 -285
-282 285 287
-288 -282
-288 285
282 -285 288
-289 -287
-289 -288
287 288 289
-290 -282
-290 -285
282 285 290
-291 -286
-291 -290
286 290 291
-292 -48
-292 49
48 -49 292
-293 48
-293 -49
-48 49 293
-294 -292
-294 -293
292 293 294
-295 48
-295 49
-48 -49 295
-296 291
-296 -294
-291 294 296
-297 -291
-297 294
291 -294 297
-298 -296
-298 -297
296 297 298
-299 -291
-299 -294
291 294 299
-300 -295
-300 -299
295 299 300
-301 -49
-301 50
49 -50 301
-302 49
-302 -50
-49 50 302
-303 -301
-303 -302
301 302 303
-304 49
-304 50
-49 -50 304
-305 300
-305 -303
-300 303 305
-306 -300
-306 303
300 -303 306
-307 -305
-307 -306
305 306 307
-308 -300
-308 -303
300 303 308
-309 -304
-309 -308
304 308 309
-310 -50
-310 51
50 -51 310
-311 50
-311 -51
-50 51 311
-312 -310
-312 -311
310 311 312
-313 50
-313 51
-50 -51 313
-314 309
-314 -312
-309 312 314
-315 -309
-315 312
309 -312 315
-316 -314
-316 -315
314 315 316
-317 -309
-317 -312
309 312 317
-318 -313
-318 -317
313 317 318
-319 -51
-319 52
51 -52 319
-320 51
-320 -52
-51 52 320
-321 -319
-321 -320
319 320 321
-322 51
-322 52
-51 -52 322
-323 318
-323 -321
-318 321 323
-324 -318
-324 321
318 -321 324
-325 -323
-325 -324
323 324 325
-326 -318
-326 -321
318 321 326
-327 -322
-327 -326
322 326 327
-328 -52
-328 53
52 -53 328
-329 52
-329 -53
-52 53 329
-330 -328
-330 -329
328 329 330
-331 52
-331 53
-52 -53 331
-332 327
-332 -330
-327 330 332
-333 -327
-333 330
327 -330 333
-334 -332
-334 -333
332 333 334
-335 -327
-335 -330
327 330 335
-336 -331
-336 -335
331 335 336
-337 -53
-337 54
53 -54 337
-338 53
-338 -54
-53 54 338
-339 -337
-339 -338
337 338 339
-340 53
-340 54
-53 -54 340
-341 336
-341 -339
-336 339 341
-342 -336
-342 339
336 -339 342
-343 -341
-343 -342
341 342 343
-344 -336
-344 -339
336 339 344
-345 -340
-345 -344
340 344 345
-346 -54
-346 55
54 -55 346
-347 54
-347 -55
-54 55 347
-348 -346
-348 -347
346 347 348
-349 54
-349 55
-54 -55 349
-350 345
-350 -348
-345 348 350
-351 -345
-351 348
345 -348 351
-352 -350
-352 -351
350 351 352
-353 -345
-353 -348
345 348 353
-354 -349
-354 -353
349 353 354
-355 25
-355 -91
-25 91 355
-356 -25
-356 27
25 -27 356
-357 -355
-357 -356
355 356 357
-358 25
-358 -100
-25 100 358
-359 -25
-359 28
25 -28 359
-360 -358
-360 -359
358 359 360
-361 25
-361 -109
-25 109 361
-362 -25
-362 29
25 -29 362
-363 -361
-363 -362
361 362 363
-364 25
-364 -118
-25 118 364
-365 -25
-365 30
25 -30 365
-366 -364
-366 -365
364 365 366
-367 25
-367 -127
-25 127 367
-368 -25
-368 31
25 -31 368
-369 -367
-369 -368
367 368 369
-370 25
-370 -136
-25 136 370
-371 -25
-371 32
25 -32 371
-372 -370
-372 -371
370 371 372
-373 25
-373 -145
-25 145 373
-374 -25
-374 33
25 -33 374
-375 -373
-375 -374
373 374 375
-376 25
-376 -154
-25 154 376
-377 -25
-377 34
25 -34 377
-378 -376
-378 -377
376 377 378
-379 25
-379 -163
-25 163 379
-380 -25
-380 35
25 -35 380
-381 -379
-381 -380
379 380 381
-382 25
-382 -172
-25 172 382
-383 -25
-383 36
25 -36 383
-384 -382
-384 -383
382 383 384
-385 25
-385 -181
-25 181 385
-386 -25
-386 37
25 -37 386
-387 -385
-387 -386
385 386 387
-388 25
-388 -190
-25 190 388
-389 -25
-389 38
25 -38 389
-390 -388
-390 -389
388 389 390
-391 25
-391 -199
-25 199 391
-392 -25
-392 39
25 -39 392
-393 -391
-393 -392
391 392 393
-394 25
-394 -208
-25 208 394
-395 -25
-395 40
25 -40 395
-396 -394
-396 -395
394 395 396
-397 25
-397 -217
-25 217 397
-398 -25
-398 41
25 -41 398
-399 -397
-399 -398
397 398 399
-400 25
-400 -226
-25 226 400
-401 -25
-401 42
25 -42 401
-402 -400
-402 -401
400 401 402
-403 25
-403 -235
-25 235 403
-404 -25
-404 43
25 -43 404
-405 -403
-405 -404
403 404 405
-406 25
-406 -244
-25 244 406
-407 -25
-407 44
25 -44 407
-408 -406
-408 -407
406 407 408
-409 25
-409 -253
-25 253 409
-410 -25
-410 45
25 -45 410
-411 -409
-411 -410
409 410 411
-412 25
-412 -262
-25 262 412
-413 -25
-413 46
25 -46 413
-414 -412
-414 -413
412 413 414
-415 25
-415 -271
-25 271 415
-416 -25
-416 47
25 -47 416
-417 -415
-417 -416
415 416 417
-418 25
-418 -280
-25 280 418
-419 -25
-419 48
25 -48 419
-420 -418
-420 -419
418 419 420
-421 25
-421 -289
-25 289 421
-422 -25
-422 49
25 -49 422
-423 -421
-423 -422
421 422 423
-424 25
-424 -298
-25 298 424
-425 -25
-425 50
25 -50 425
-426 -424
-426 -425
424 425 426
-427 25
-427 -307
-25 307 427
-428 -25
-428 51
25 -51 428
-429 -427
-429 -428
427 428 429
-430 25
-430 -316
-25 316 430
-431 -25
-431 52
25 -52 431
-432 -430
-432 -431
430 431 432
-433 25
-433 -325
-25 325 433
-434 -25
-434 53
25 -53 434
-435 -433
-435 -434
433 434 435
-436 25
-436 -334
-25 334 436
-437 -25
-437 54
25 -54 437
-438 -436
-438 -437
436 437 438
-439 25
-439 -343
-25 343 439
-440 -25
-440 55
25 -55 440
-441 -439
-441 -440
439 440 441
-442 25
-442 -352
-25 352 442
-443 1
-443 84
-1 -84 443
-444 -84
-444 85
84 -85 444
-445 -443
-445 -444
443 444 445
-446 2
-446 84
-2 -84 446
-447 -84
-447 -357
84 357 447
-448 -446
-448 -447
446 447 448
-449 3
-449 84
-3 -84 449
-450 -84
-450 -360
84 360 450
-451 -449
-451 -450
449 450 451
-452 4
-452 84
-4 -84 452
-453 -84
-453 -363
84 363 453
-454 -452
-454 -453
452 453 454
-455 5
-455 84
-5 -84 455
-456 -84
-456 -366
84 366 456
-457 -455
-457 -456
455 456 457
-458 6
-458 84
-6 -84 458
-459 -84
-459 -369
84 369 459
-460 -458
-460 -459
458 459 460
-461 7
-461 84
-7 -84 461
-462 -84
-462 -372
84 372 462
-463 -461
-463 -462
461 462 463
-464 8
-464 84
-8 -84 464
-465 -84
-465 -375
84 375 465
-466 -464
-466 -465
464 465 466
-467 9
-467 84
-9 -84 467
-468 -84
-468 -378
84 378 468
-469 -467
-469 -468
467 468 469
-470 10
-470 84
-10 -84 470
-471 -84
-471 -381
84 381 471
-472 -470
-472 -471
470 471 472
-473 11
-473 84
-11 -84 473
-474 -84
-474 -384
84 384 474
-475 -473
-475 -474
473 474 475
-476 12
-476 84
-12 -84 476
-477 -84
-477 -387
84 387 477
-478 -476
-478 -477
476 477 478
-479 13
-479 84
-13 -84 479
-480 -84
-480 -390
84 390 480
-481 -479
-481 -480
479 480 481
-482 14
-482 84
-14 -84 482
-483 -84
-483 -393
84 393 483
-484 -482
-484 -483
482 483 484
-485 15
-485 84
-15 -84 485
-486 -84
-486 -396
84 396 486
-487 -485
-487 -486
485 486 487
-488 16
-488 84
-16 -84 488
-489 -84
-489 -399
84 399 489
-490 -488
-490 -489
488 489 490
-491 17
-491 84
-17 -84 491
-492 -84
-492 -402
84 402 492
-493 -491
-493 -492
491 492 493
-494 18
-494 84
-18 -84 494
-495 -84
-495 -405
84 405 495
-496 -494
-496 -495
494 495 496
-497 19
-497 84
-19 -84 497
-498 -84
-498 -408
84 408 498
-499 -497
-499 -498
497 498 499
-500 20
-500 84
-20 -84 500
-501 -84
-501 -411
84 411 501
-502 -500
-502 -501
500 501 502
-503 21
-503 84
-21 -84 503
-504 -84
-504 -414
84 414 504
-505 -503
-505 -504
503 504 505
-506 22
-506 84
-22 -84 506
-507 -84
-507 -417
84 417 507
-508 -506
-508 -507
506 507 508
-509 23
-509 84
-23 -84 509
-510 -84
-510 -420
84 420 510
-511 -509
-511 -510
509 510 511
-512 24
-512 84
-24 -84 512
-513 -84
-513 -423
84 423 513
-514 -512
-514 -513
512 513 514
-515 -84
-515 -426
84 426 515
-516 -84
-516 -429
84 429 516
-517 -84
-517 -432
84 432 517
-518 -84
-518 -435
84 435 518
-519 -84
-519 -438
84 438 519
-520 -84
-520 -441
84 441 520
-521 -84
-521 442
84 -442 521
-522 -55
-522 354
55 -354 522
-523 25
-523 -522
-25 522 523
523
